Version identifier: 22.1.1.0 | 2022-11-28 | 9160aff4d
CPXPARAM_Read_DataCheck                          1
CPXPARAM_MIP_Cuts_Covers                         1
CPXPARAM_MIP_Strategy_NodeSelect                 2
CPXPARAM_MIP_Cuts_FlowCovers                     1
CPXPARAM_MIP_Cuts_MIRCut                         1
CPXPARAM_MIP_Strategy_HeuristicFreq              5
CPXPARAM_TimeLimit                               388
Tried aggregator 1 time.
MIP Presolve eliminated 7 rows and 3 columns.
MIP Presolve added 2 rows and 0 columns.
MIP Presolve modified 20054 coefficients.
Reduced MIP has 5957 rows, 8912 columns, and 51471 nonzeros.
Reduced MIP has 8838 binaries, 0 generals, 0 SOSs, and 0 indicators.
Presolve time = 0.02 sec. (34.07 ticks)
Probing time = 0.01 sec. (6.01 ticks)
Tried aggregator 1 time.
Detecting symmetries...
Reduced MIP has 5957 rows, 8912 columns, and 51471 nonzeros.
Reduced MIP has 8838 binaries, 0 generals, 0 SOSs, and 0 indicators.
Presolve time = 0.02 sec. (27.50 ticks)
Probing time = 0.01 sec. (5.63 ticks)
Clique table members: 30291.
MIP emphasis: balance optimality and feasibility.
MIP search method: dynamic search.
Parallel mode: deterministic, using up to 12 threads.
Root relaxation solution time = 0.15 sec. (58.34 ticks)

        Nodes                                         Cuts/
   Node  Left     Objective  IInf  Best Integer    Best Bound    ItCnt     Gap

      0     0      921.3415   171                    921.3415      956         
      0     0     1011.5642   169                   Cuts: 163     1282         
      0     0     1053.5000    78                   Cuts: 339     1607         
      0     0     1054.2534    99                   Cuts: 459     1747         
      0     0     1056.6926   122                   Cuts: 126     1902         
      0     0     1058.2222   131                   Cuts: 103     1974         
Detecting symmetries...
      0     0     1060.2500   133                   Cuts: 300     2102         
      0     0     1062.7143   134                   Cuts: 181     2208         
      0     0     1063.5135   144                   Cuts: 134     2413         
      0     0     1064.0938   134                   Cuts: 114     2548         
      0     0     1065.6667   112                   Cuts: 365     2662         
      0     0     1065.7738   140                   Cuts: 289     2768         
      0     0     1065.7917   164                    Cuts: 22     2971         
*     0+    0                         2668.0000     1065.7917            60.05%
*     0+    0                         1208.0000     1065.7917            11.77%
Detecting symmetries...

Repeating presolve.
Tried aggregator 1 time.
MIP Presolve eliminated 3086 rows and 3171 columns.
Reduced MIP has 2871 rows, 5741 columns, and 29611 nonzeros.
Reduced MIP has 5667 binaries, 0 generals, 0 SOSs, and 0 indicators.
Presolve time = 0.01 sec. (15.07 ticks)
Probing time = 0.01 sec. (4.55 ticks)
Tried aggregator 1 time.
Detecting symmetries...
Reduced MIP has 2871 rows, 5741 columns, and 29611 nonzeros.
Reduced MIP has 5667 binaries, 0 generals, 0 SOSs, and 0 indicators.
Presolve time = 0.01 sec. (16.48 ticks)
Represolve time = 0.06 sec. (68.15 ticks)
Probing time = 0.01 sec. (4.53 ticks)
Clique table members: 17797.
MIP emphasis: balance optimality and feasibility.
MIP search method: dynamic search.
Parallel mode: deterministic, using up to 12 threads.
Root relaxation solution time = 0.07 sec. (102.97 ticks)

        Nodes                                         Cuts/
   Node  Left     Objective  IInf  Best Integer    Best Bound    ItCnt     Gap

*     0+    0                         1208.0000     1066.6750            11.70%
      0     0     1065.7917   160     1208.0000     1066.6750     4111   11.70%
      0     0     1066.6750   159     1208.0000      Cuts: 75     4273   11.70%
      0     0     1066.6750   146     1208.0000     Cuts: 282     4436   11.70%
      0     0     1066.7500   138     1208.0000      Cuts: 57     4518   11.69%
      0     0     1066.7500   132     1208.0000     Cuts: 152     4686   11.69%
      0     0     1066.7500   133     1208.0000      Cuts: 32     4767   11.69%
      0     0     1066.7500   111     1208.0000      Cuts: 10     4810   11.69%
      0     0     1066.7500   129     1208.0000     Cuts: 204     4987   11.69%
Detecting symmetries...
      0     2     1066.7500    83     1208.0000     1066.7500     4987   11.69%
Elapsed time = 5.19 sec. (5102.51 ticks, tree = 0.02 MB, solutions = 2)
    118   100     1067.3333    36     1208.0000     1066.7500     8954   11.69%
    329   234     1066.8421   106     1208.0000     1066.7500    17774   11.69%
    528   455     1083.3583   123     1208.0000     1066.7500    29703   11.69%
*   709+  596                         1205.0000     1066.7500            11.47%
    792   673     1119.1529    38     1205.0000     1066.7500    44569   11.47%
*   820+  743                         1188.0000     1066.7500            10.21%
   1056   856     1170.3413    51     1188.0000     1066.7500    54951   10.21%
*  1081   862      integral     0     1097.0000     1066.7500    53994    2.76%
   1337   960     1066.8333    64     1097.0000     1066.7500    64270    2.76%
   1716  1186     1068.1641   129     1097.0000     1066.7500    73189    2.76%
   2041  1445        cutoff           1097.0000     1066.7500    84377    2.76%
   2409  1782     1073.2500    67     1097.0000     1066.7500   100289    2.76%
*  3935+ 3127                         1073.0000     1066.7500             0.58%
   4141  1465     1069.2500    61     1073.0000     1066.7500   146342    0.58%
Elapsed time = 8.84 sec. (8208.09 ticks, tree = 25.77 MB, solutions = 6)

Performing restart 1

Repeating presolve.
Tried aggregator 3 times.
MIP Presolve eliminated 2146 rows and 3105 columns.
MIP Presolve added 20 rows and 0 columns.
MIP Presolve modified 2930 coefficients.
Aggregator did 14 substitutions.
Reduced MIP has 731 rows, 2622 columns, and 8700 nonzeros.
Reduced MIP has 2553 binaries, 0 generals, 0 SOSs, and 0 indicators.
Presolve time = 0.02 sec. (23.72 ticks)
Tried aggregator 2 times.
MIP Presolve eliminated 37 rows and 136 columns.
MIP Presolve added 4 rows and 0 columns.
MIP Presolve modified 255 coefficients.
Aggregator did 4 substitutions.
Reduced MIP has 694 rows, 2482 columns, and 8229 nonzeros.
Reduced MIP has 2417 binaries, 0 generals, 0 SOSs, and 0 indicators.
Presolve time = 0.01 sec. (8.23 ticks)
Tried aggregator 1 time.
Reduced MIP has 694 rows, 2482 columns, and 8229 nonzeros.
Reduced MIP has 2417 binaries, 0 generals, 0 SOSs, and 0 indicators.
Presolve time = 0.00 sec. (5.33 ticks)
Represolve time = 0.09 sec. (110.95 ticks)
*  4554+    0                         1072.0000     1066.7500             0.49%
   4554     0     1066.7826   156     1072.0000     Cuts: 119   167544    0.45%
   4554     0     1067.1000   161     1072.0000      Cuts: 86   167728    0.31%
   4554     0     1067.1765   182     1072.0000     Cuts: 130   168052    0.31%

GUB cover cuts applied:  57
Clique cuts applied:  4
Cover cuts applied:  16
Implied bound cuts applied:  6
Flow cuts applied:  2
Mixed integer rounding cuts applied:  111
Zero-half cuts applied:  41
Lift and project cuts applied:  14
Gomory fractional cuts applied:  37

Root node processing (before b&c):
  Real time             =    5.17 sec. (5085.30 ticks)
Parallel b&c, 12 threads:
  Real time             =    4.59 sec. (4021.05 ticks)
  Sync time (average)   =    0.78 sec.
  Wait time (average)   =    0.00 sec.
                          ------------
Total (root+branch&cut) =    9.75 sec. (9106.35 ticks)
